Generated by cif2cell 2.1.0. Ba2 Ce (C O3)3 F :  Mercier, N and Leblanc, M, European Journal of Solid State Inorganic Chemistry 30, 195-205 (1993).
  13.365000
  1.000000000000000   0.000000000000000   0.000000000000000
  0.000000000000000   0.381369248035915   0.000000000000000
 -0.140646385341213   0.000000000000000   0.476340307192569
  Ba   C   F   O  Ce
   4   6   2  18   2
Direct
  0.075100000000000   0.250000000000000   0.290300000000000 
  0.924900000000000   0.750000000000000   0.709700000000000 
  0.416600000000000   0.250000000000000   0.690400000000000 
  0.583400000000000   0.750000000000000   0.309600000000000 
  0.726700000000000   0.250000000000000   0.512400000000000 
  0.273300000000000   0.750000000000000   0.487600000000000 
  0.427800000000000   0.250000000000000   0.173500000000000 
  0.572200000000000   0.750000000000000   0.826500000000000 
  0.127600000000000   0.250000000000000   0.796000000000000 
  0.872400000000000   0.750000000000000   0.204000000000000 
  0.927700000000000   0.250000000000000   0.910800000000000 
  0.072300000000000   0.750000000000000   0.089200000000000 
  0.183600000000000   0.250000000000000   0.991400000000000 
  0.816400000000000   0.750000000000000   0.008600000000000 
  0.701000000000000   0.250000000000000   0.310900000000000 
  0.299000000000000   0.750000000000000   0.689100000000000 
  0.490700000000000   0.250000000000000   0.356900000000000 
  0.509300000000000   0.750000000000000   0.643100000000000 
  0.398100000000000   0.031200000000000   0.076000000000000 
  0.398100000000000   0.468800000000000   0.076000000000000 
  0.601900000000000   0.968800000000000   0.924000000000000 
  0.601900000000000   0.531200000000000   0.924000000000000 
  0.263100000000000   0.966800000000000   0.384500000000000 
  0.263100000000000   0.533200000000000   0.384500000000000 
  0.736900000000000   0.033200000000000   0.615500000000000 
  0.736900000000000   0.466800000000000   0.615500000000000 
  0.895900000000000   0.970600000000000   0.297600000000000 
  0.895900000000000   0.529400000000000   0.297600000000000 
  0.104100000000000   0.029400000000000   0.702400000000000 
  0.104100000000000   0.470600000000000   0.702400000000000 
  0.761300000000000   0.250000000000000   0.988100000000000 
  0.238700000000000   0.750000000000000   0.011900000000000 
