Generated by cif2cell 2.1.0. Ba2 Ce (C O3)3 F :  Mercier, N and Leblanc, M, European Journal of Solid State Inorganic Chemistry 30, 195-205 (1993).
  13.365000
  1.000000000000000   0.000000000000000   0.000000000000000
  0.000000000000000   0.381369248035915   0.000000000000000
 -0.140646385341213   0.000000000000000   0.476340307192569
  Ba   C   F   Ce
   4   6   2   2
Direct
  0.075100   0.250000   0.290300
  0.924900   0.750000   0.709700
  0.416600   0.250000   0.690400
  0.583400   0.750000   0.309600
  0.706783   0.250000   0.519880
  0.293217   0.750000   0.480120
  0.444946   0.250000   0.155038
  0.555054   0.750000   0.844962
  0.153818   0.250000   0.809051
  0.846182   0.750000   0.190949
  0.927700   0.250000   0.910800
  0.072300   0.750000   0.089200
  0.761300   0.250000   0.988100
  0.238700   0.750000   0.011900
