Generated by cif2cell 2.1.0. Ba C O3 :  de Villiers, J. P. R., American Mineralogist 56, 758-767 (1971).
   5.312600
  1.000000000000000   0.000000000000000   0.000000000000000
  0.000000000000000   1.674472009938636   0.000000000000000
  0.000000000000000   0.000000000000000   1.210028987689644
Ba C
4 4
Direct

0.250000 0.416310 0.754900
0.250000 0.083690 0.254900
0.750000 0.583690 0.245100
0.750000 0.916310 0.745100
0.250000 0.752330 0.914500
0.250000 0.747670 0.414500
0.750000 0.247670 0.085500
0.750000 0.252330 0.585500
